512664 8530.59
1746.42 375386
437580 16377.4
205014 152252
223302 120451
38859.5 290828
7152.13 340990
293326 45226
419810 20733
116902 237728
82885.1 264007
119498 235253
270392 82968
289266 52548.6
256990 105064
353790 21744.8
123271 224543
95903.9 254593
170339 187951
32817.6 317484
176660 173517
207425 148737
98296.6 249183
74602.4 272598
1794.43 367939
174423 176021
137241 218066
338573 22267.9
30893.5 332772
260401 85921.2
3584.89 345905
148602 199149
282757 76404.4
71264.6 290588
72533.5 289105
176660 173517
267472 85617
176660 173517
146314 204110
117601 236558
36574.4 309458
446327 8552.72
144672 206681
165513 191090
187626 156474
227624 106542
136458 222146
30671.6 339443
